/*********************************************
 * OPL 12.7.1.0 Data
 * Author: La catedra
 * Creation Date: Mar 25, 2019 at 8:44:07 AM
 *********************************************/
/*PRODUCTOS:
1: Nescafe Dolca
2: Nescafe Clasico
3: Nescafe Gold Blend 
...
*/
PRODUCTOS = {1, 2, 3, 4, 5, 6, 7, 8, 9, 10, 11, 12, 13, 14, 15, 16, 17, 18, 19, 20, 21, 22, 23, 24, 25, 26, 27, 28, 29, 30, 31, 32, 33, 34, 35, 36, 37, 38, 39, 40, 41, 42, 43, 44, 45, 46, 47, 48, 49, 50}; 
DISPONIBILIDAD = [ 1, 1, 0, 1, 0, 1, 1, 0, 1, 1, 1, 1, 1, 1, 1, 0, 1, 1, 1, 1, 1, 0, 1, 1, 1, 1, 0, 1, 1, 1, 1, 1, 0, 0, 1, 1, 1, 1, 1, 1, 1, 1, 0, 1, 1, 1, 1, 1, 1, 0 ]; 
PRECIO_PROMO =   [  90, 105, 110, 155, 165, 175, 185, 195, 205, 215,  90, 105, 110, 155, 165, 175, 185, 195, 205, 211,  90, 105, 110, 155, 165, 175, 185, 195, 205, 214,  90, 105, 110, 155, 165, 175, 185, 195, 205, 214,  90, 105, 110, 155, 165, 175, 185, 195, 205, 218 ]; 
PRECIO_REGULAR = [ 100, 120, 150, 160, 170, 180, 190, 200, 210, 220, 100, 120, 150, 160, 170, 180, 190, 200, 210, 221, 100, 120, 150, 160, 170, 180, 190, 200, 210, 220, 100, 120, 150, 160, 170, 180, 190, 200, 210, 221, 100, 120, 150, 160, 170, 180, 190, 200, 210, 220 ]; 
PREFERENCIAS_PROMO =   [ 2,  1,  3,  4,  5,  6,  7,  8,  9, 10, 21, 22, 23, 24, 25, 26, 27, 28, 29, 30, 42, 41, 43, 44, 45, 46, 47, 48, 49, 50, 62, 61, 63, 64, 65, 66, 67, 68, 69, 70, 81, 82, 83, 84, 85, 86, 87, 88, 89, 90 ]; 
PREFERENCIAS_REGULAR = [11, 12, 13, 14, 15, 16, 17, 18, 19, 20, 32, 31, 33, 34, 35, 36, 37, 38, 39, 40, 52, 51, 53, 54, 55, 56, 57, 58, 59, 60, 72, 71, 73, 74, 75, 76, 77, 78, 79, 80, 91, 92, 93, 94, 95, 96, 97, 100, 99, 98  ];

/*Output: Producto 10 a precio promo 215*/ 